nNurses = 136;
nHours = 26;
minHours = 3;
maxHours = 11;
maxConsec = 9;
maxPresence = 17;
demand = [41, 38, 42, 39, 44, 45, 50, 47, 50, 45, 42, 46, 43, 41, 43, 40, 37, 35, 36, 36, 41, 38, 34, 32, 33, 34];
